Instance name: /home/cuong/CLionProjects/uMV-FSTSP/50_dis_rand_ins/v94
Write arg val: 1

drone speed: 1 miles/minute
uav non-eligible customer: 7 9 11 
Printing tau:
0 24.4758 51.1539 48.8877 39.7614 46.0787 46.6182 63.2609 75.1488 93.8381 92.6677 0 
24.4758 0 41.6782 45.0953 15.2856 21.6029 22.1425 49.1887 61.0766 69.3624 68.192 24.4758 
51.1539 41.6782 0 3.4171 46.9344 51.5718 38.3929 90.867 102.755 42.6843 41.5138 51.1539 
48.8877 45.0953 3.4171 0 50.3515 54.9889 41.81 94.2841 106.172 44.9504 43.78 48.8877 
39.7614 15.2856 46.9344 50.3515 0 6.31731 8.5415 43.9326 55.8204 54.0767 52.9063 39.7614 
46.0787 21.6029 51.5718 54.9889 6.31731 0 13.1789 39.2951 51.183 47.7594 46.589 46.0787 
46.6182 22.1425 38.3929 41.81 8.5415 13.1789 0 52.4741 64.3619 47.2199 46.0495 46.6182 
63.2609 49.1887 90.867 94.2841 43.9326 39.2951 52.4741 0 15.1007 68.7385 59.7702 63.2609 
75.1488 61.0766 102.755 106.172 55.8204 51.183 64.3619 15.1007 0 80.6264 66.8607 75.1488 
93.8381 69.3624 42.6843 44.9504 54.0767 47.7594 47.2199 68.7385 80.6264 0 13.7657 93.8381 
92.6677 68.192 41.5138 43.78 52.9063 46.589 46.0495 59.7702 66.8607 13.7657 0 92.6677 
0 0 0 0 0 0 0 0 0 0 0 0 
Printing tau_prime:
0 3.99271 8.22048 8.18834 6.25228 7.34521 6.767 10.0838 12.6104 13.2933 13.1575 0 
3.99271 0 6.99828 7.25194 2.28595 3.36027 3.1657 7.05756 9.25598 10.1915 9.67843 3.99271 
8.22048 6.99828 0 0.579864 6.83026 7.32859 5.46733 13.1073 14.5386 6.79943 7.76117 8.22048 
8.18834 7.25194 0.579864 0 7.2368 7.78675 5.92153 13.5242 15.0155 7.31179 8.32113 8.18834 
6.25228 2.28595 6.83026 7.2368 0 1.10828 1.54902 6.28838 7.97968 8.41383 7.64325 6.25228 
7.34521 3.36027 7.32859 7.78675 1.10828 0 1.86535 5.86149 7.24346 7.93457 6.95173 7.34521 
6.767 3.1657 5.46733 5.92153 1.54902 1.86535 0 7.67045 9.10425 7.06293 6.52196 6.767 
10.0838 7.05756 13.1073 13.5242 6.28838 5.86149 7.67045 0 2.71791 12.9913 11.4843 10.0838 
12.6104 9.25598 14.5386 15.0155 7.97968 7.24346 9.10425 2.71791 0 13.1163 11.3717 12.6104 
13.2933 10.1915 6.79943 7.31179 8.41383 7.93457 7.06293 12.9913 13.1163 0 1.95378 13.2933 
13.1575 9.67843 7.76117 8.32113 7.64325 6.95173 6.52196 11.4843 11.3717 1.95378 0 13.1575 
0 0 0 0 0 0 0 0 0 0 0 0 
Printing number of nodes: 11

Version identifier: 22.1.1.0 | 2022-11-28 | 9160aff4d
CPXPARAM_ClockType                               0
CPXPARAM_Emphasis_MIP                            2
CPXPARAM_MIP_Tolerances_Integrality              0
Tried aggregator 3 times.
MIP Presolve eliminated 1015 rows and 1254 columns.
MIP Presolve modified 738 coefficients.
Aggregator did 12 substitutions.
Reduced MIP has 5248 rows, 449 columns, and 149215 nonzeros.
Reduced MIP has 441 binaries, 0 generals, 0 SOSs, and 0 indicators.
Presolve time = 0.10 sec. (348.00 ticks)
Found incumbent of value 663.847700 after 0.13 sec. (433.12 ticks)
Probing fixed 71 vars, tightened 0 bounds.
Probing changed sense of 18 constraints.
Probing time = 0.02 sec. (16.92 ticks)
Tried aggregator 2 times.
MIP Presolve eliminated 97 rows and 91 columns.
MIP Presolve modified 93 coefficients.
Aggregator did 2 substitutions.
Reduced MIP has 5149 rows, 356 columns, and 148546 nonzeros.
Reduced MIP has 348 binaries, 0 generals, 0 SOSs, and 0 indicators.
Presolve time = 0.08 sec. (222.64 ticks)
Probing changed sense of 4 constraints.
Probing time = 0.01 sec. (14.81 ticks)
Tried aggregator 1 time.
MIP Presolve eliminated 61 rows and 77 columns.
MIP Presolve modified 38 coefficients.
Reduced MIP has 5088 rows, 279 columns, and 148260 nonzeros.
Reduced MIP has 272 binaries, 0 generals, 0 SOSs, and 0 indicators.
Presolve time = 0.07 sec. (182.57 ticks)
Probing time = 0.09 sec. (10.31 ticks)
Tried aggregator 1 time.
Detecting symmetries...
Reduced MIP has 5088 rows, 279 columns, and 148260 nonzeros.
Reduced MIP has 272 binaries, 0 generals, 0 SOSs, and 0 indicators.
Presolve time = 0.03 sec. (79.16 ticks)
Probing time = 0.01 sec. (11.71 ticks)
Clique table members: 15980.
MIP emphasis: optimality.
MIP search method: dynamic search.
Parallel mode: deterministic, using up to 20 threads.
Root relaxation solution time = 0.04 sec. (37.52 ticks)

        Nodes                                         Cuts/
   Node  Left     Objective  IInf  Best Integer    Best Bound    ItCnt     Gap

*     0+    0                          663.8477        0.0000           100.00%
      0     0      245.6548    65      663.8477      245.6548      303   63.00%
*     0+    0                          336.8074      245.6548            27.06%
      0     0      248.9981    84      336.8074     Cuts: 107      410   26.07%
*     0+    0                          253.0916      248.9981             1.62%
      0     0      249.3729    86      253.0916      Cuts: 44      455    1.47%
Detecting symmetries...

Repeating presolve.
Tried aggregator 2 times.
MIP Presolve eliminated 2792 rows and 97 columns.
MIP Presolve added 2 rows and 0 columns.
MIP Presolve modified 7501 coefficients.
Aggregator did 3 substitutions.
Reduced MIP has 2295 rows, 179 columns, and 35698 nonzeros.
Reduced MIP has 173 binaries, 0 generals, 0 SOSs, and 0 indicators.
Presolve time = 0.12 sec. (498.38 ticks)
Probing fixed 8 vars, tightened 0 bounds.
Probing changed sense of 27 constraints.
Probing time = 0.01 sec. (10.77 ticks)
Tried aggregator 1 time.
MIP Presolve eliminated 1731 rows and 40 columns.
MIP Presolve modified 3025 coefficients.
Reduced MIP has 563 rows, 139 columns, and 7020 nonzeros.
Reduced MIP has 135 binaries, 0 generals, 0 SOSs, and 0 indicators.
Presolve time = 0.04 sec. (150.32 ticks)
Probing fixed 1 vars, tightened 0 bounds.
Probing time = 0.00 sec. (6.39 ticks)
Tried aggregator 1 time.
MIP Presolve eliminated 4 rows and 3 columns.
MIP Presolve modified 6 coefficients.
Reduced MIP has 559 rows, 136 columns, and 7000 nonzeros.
Reduced MIP has 132 binaries, 0 generals, 0 SOSs, and 0 indicators.
Presolve time = 0.00 sec. (7.91 ticks)
Probing time = 0.00 sec. (3.56 ticks)
Tried aggregator 1 time.
Detecting symmetries...
Reduced MIP has 559 rows, 136 columns, and 7000 nonzeros.
Reduced MIP has 132 binaries, 0 generals, 0 SOSs, and 0 indicators.
Presolve time = 0.00 sec. (8.08 ticks)
Represolve time = 0.19 sec. (696.28 ticks)
Probing time = 0.00 sec. (3.56 ticks)
Clique table members: 5473.
MIP emphasis: optimality.
MIP search method: dynamic search.
Parallel mode: deterministic, using up to 20 threads.
Root relaxation solution time = 0.01 sec. (10.46 ticks)

        Nodes                                         Cuts/
   Node  Left     Objective  IInf  Best Integer    Best Bound    ItCnt     Gap

*     0+    0                          253.0916      249.3729             1.47%
      0     0      249.5191    62      253.0916      249.5191      744    1.41%
*     0+    0                          252.5487      249.5191             1.20%
      0     0        cutoff            252.5487      252.5487      772    0.00%
Elapsed time = 1.00 sec. (2248.85 ticks, tree = 0.01 MB, solutions = 4)

GUB cover cuts applied:  1
Clique cuts applied:  51
Implied bound cuts applied:  11
Flow cuts applied:  1
Mixed integer rounding cuts applied:  4
Zero-half cuts applied:  7
Lift and project cuts applied:  16
Gomory fractional cuts applied:  2

Root node processing (before b&c):
  Real time             =    1.00 sec. (2248.96 ticks)
Parallel b&c, 20 threads:
  Real time             =    0.00 sec. (0.00 ticks)
  Sync time (average)   =    0.00 sec.
  Wait time (average)   =    0.00 sec.
                          ------------
Total (root+branch&cut) =    1.00 sec. (2248.96 ticks)
Truck arcs:
0 7
1 11
4 1
5 4
6 5
7 10
9 6
10 9
customer 2 is served by drone

customer 3 is served by drone

customer 8 is served by drone

252.549
In write mode
